(set-logic HORN)
(declare-fun assign_34_10_364_abs0123 (Int Int Int Int Int Int Int Int Int Int) Bool)
(declare-fun assert_33_10_355_abs0123 (Int Int Int Int Int Int Int Int Int Int) Bool)
(declare-fun assert_32_3_337_abs0123 (Int Int Int Int Int Int Int Int Int Int) Bool)
(declare-fun while_29_8_367_abs0123 (Int Int Int Int Int Int Int Int Int Int) Bool)
(declare-fun assign_28_1_251_abs0123 (Int Int Int Int Int Int Int Int Int Int) Bool)
(declare-fun assign_25_5_242_abs0123 (Int Int Int Int Int Int Int Int Int Int) Bool)
(declare-fun arrayassign_24_5_233_abs0123 (Int Int Int Int Int Int Int Int Int Int) Bool)
(declare-fun arrayassign_23_5_219_abs0123 (Int Int Int Int Int Int Int Int Int Int) Bool)
(declare-fun while_20_1_245_abs0123 (Int Int Int Int Int Int Int Int Int Int) Bool)
(declare-fun assign_19_1_137_abs0123 (Int Int Int Int Int Int Int Int Int Int) Bool)
(declare-fun assign_17_5_128_abs0123 (Int Int Int Int Int Int Int Int Int Int) Bool)
(declare-fun arrayassign_16_12_119_abs0123 (Int Int Int Int Int Int Int Int Int Int) Bool)
(declare-fun arrayassign_15_5_105_abs0123 (Int Int Int Int Int Int Int Int Int Int) Bool)
(declare-fun while_13_1_131_abs0123 (Int Int Int Int Int Int Int Int Int Int) Bool)
(declare-fun assign_12_8_83_abs0123 (Int Int Int Int Int Int Int Int Int Int) Bool)
(declare-fun assign_11_1_77_abs0123 (Int Int Int Int Int Int Int Int Int Int) Bool)
(declare-fun end_abs0123 (Int Int Int Int Int Int Int Int Int Int) Bool)
(declare-fun start_abs0123 (Int Int Int Int Int Int Int Int Int Int) Bool)
(assert (forall ((N Int) (i Int) (vabs_f_f Int) (vabs_s_f_f Int) (vabs_s_s_f_f Int) (vabs_s_s_s_f_f Int) (b_copy_select Int) (a_copy_select Int) (b_select Int) (a_select Int)) (start_abs0123 vabs_f_f b_copy_select vabs_s_f_f a_copy_select vabs_s_s_f_f b_select vabs_s_s_s_f_f a_select N i)))
(assert (forall ((i Int) (N Int) (vabs_0_f_f Int) (vabs_0_s_f_f Int) (vabs_0_s_s_f_f Int) (vabs_0_s_s_s_f_f Int) (a_select Int) (b_select Int) (a_copy_select Int) (b_copy_select Int)) (=> (start_abs0123 vabs_0_f_f b_copy_select vabs_0_s_f_f a_copy_select vabs_0_s_s_f_f b_select vabs_0_s_s_s_f_f a_select N i) (assign_11_1_77_abs0123 vabs_0_f_f b_copy_select vabs_0_s_f_f a_copy_select vabs_0_s_s_f_f b_select vabs_0_s_s_s_f_f a_select N i))))
(assert (forall ((rnd Int) (i Int) (N Int) (vabs_0_f_f Int) (vabs_0_s_f_f Int) (vabs_0_s_s_f_f Int) (vabs_0_s_s_s_f_f Int) (a_select Int) (b_select Int) (a_copy_select Int) (b_copy_select Int)) (=> (assign_11_1_77_abs0123 vabs_0_f_f b_copy_select vabs_0_s_f_f a_copy_select vabs_0_s_s_f_f b_select vabs_0_s_s_s_f_f a_select N i) (assign_12_8_83_abs0123 vabs_0_f_f b_copy_select vabs_0_s_f_f a_copy_select vabs_0_s_s_f_f b_select vabs_0_s_s_s_f_f a_select rnd i))))
(assert (forall ((i Int) (N Int) (vabs_0_f_f Int) (vabs_0_s_f_f Int) (vabs_0_s_s_f_f Int) (vabs_0_s_s_s_f_f Int) (a_select Int) (b_select Int) (a_copy_select Int) (b_copy_select Int)) (=> (assign_12_8_83_abs0123 vabs_0_f_f b_copy_select vabs_0_s_f_f a_copy_select vabs_0_s_s_f_f b_select vabs_0_s_s_s_f_f a_select N i) (while_13_1_131_abs0123 vabs_0_f_f b_copy_select vabs_0_s_f_f a_copy_select vabs_0_s_s_f_f b_select vabs_0_s_s_s_f_f a_select N 0))))
(assert (forall ((N Int) (i Int) (vabs_0_f_f Int) (vabs_0_s_f_f Int) (vabs_0_s_s_f_f Int) (vabs_0_s_s_s_f_f Int) (b_copy_select Int) (a_copy_select Int) (b_select Int) (a_select Int)) (=> (and (while_13_1_131_abs0123 vabs_0_f_f b_copy_select vabs_0_s_f_f a_copy_select vabs_0_s_s_f_f b_select vabs_0_s_s_s_f_f a_select N i) (< i N)) (arrayassign_15_5_105_abs0123 vabs_0_f_f b_copy_select vabs_0_s_f_f a_copy_select vabs_0_s_s_f_f b_select vabs_0_s_s_s_f_f a_select N i))))
(assert (forall ((N Int) (i Int) (vabs_0_f_f Int) (vabs_0_s_f_f Int) (vabs_0_s_s_f_f Int) (vabs_0_s_s_s_f_f Int) (b_copy_select Int) (a_copy_select Int) (b_select Int) (a_select Int)) (=> (and (while_13_1_131_abs0123 vabs_0_f_f b_copy_select vabs_0_s_f_f a_copy_select vabs_0_s_s_f_f b_select vabs_0_s_s_s_f_f a_select N i) (not (< i N))) (assign_19_1_137_abs0123 vabs_0_f_f b_copy_select vabs_0_s_f_f a_copy_select vabs_0_s_s_f_f b_select vabs_0_s_s_s_f_f a_select N i))))
(assert (forall ((i Int) (N Int) (vabs_0_f_f Int) (vabs_0_s_f_f Int) (vabs_0_s_s_f_f Int) (vabs_0_s_s_s_f_f Int) (a_select_0 Int) (a_select Int) (b_select Int) (a_copy_select Int) (b_copy_select Int)) (=> (and (=> (= i vabs_0_s_s_s_f_f) (= a_select a_select_0)) (arrayassign_15_5_105_abs0123 vabs_0_f_f b_copy_select vabs_0_s_f_f a_copy_select vabs_0_s_s_f_f b_select vabs_0_s_s_s_f_f a_select N i) (arrayassign_15_5_105_abs0123 vabs_0_f_f b_copy_select vabs_0_s_f_f a_copy_select vabs_0_s_s_f_f b_select i a_select_0 N i)) (arrayassign_16_12_119_abs0123 vabs_0_f_f b_copy_select vabs_0_s_f_f (ite (= i vabs_0_s_f_f) a_select_0 a_copy_select) vabs_0_s_s_f_f b_select vabs_0_s_s_s_f_f a_select N i))))
(assert (forall ((i Int) (N Int) (vabs_0_f_f Int) (vabs_0_s_f_f Int) (vabs_0_s_s_f_f Int) (vabs_0_s_s_s_f_f Int) (a_select Int) (b_select_0 Int) (b_select Int) (a_copy_select Int) (b_copy_select Int)) (=> (and (=> (= i vabs_0_s_s_f_f) (= b_select b_select_0)) (arrayassign_16_12_119_abs0123 vabs_0_f_f b_copy_select vabs_0_s_f_f a_copy_select vabs_0_s_s_f_f b_select vabs_0_s_s_s_f_f a_select N i) (arrayassign_16_12_119_abs0123 vabs_0_f_f b_copy_select vabs_0_s_f_f a_copy_select i b_select_0 vabs_0_s_s_s_f_f a_select N i)) (assign_17_5_128_abs0123 vabs_0_f_f (ite (= i vabs_0_f_f) b_select_0 b_copy_select) vabs_0_s_f_f a_copy_select vabs_0_s_s_f_f b_select vabs_0_s_s_s_f_f a_select N i))))
(assert (forall ((i Int) (N Int) (vabs_0_f_f Int) (vabs_0_s_f_f Int) (vabs_0_s_s_f_f Int) (vabs_0_s_s_s_f_f Int) (a_select Int) (b_select Int) (a_copy_select Int) (b_copy_select Int)) (=> (assign_17_5_128_abs0123 vabs_0_f_f b_copy_select vabs_0_s_f_f a_copy_select vabs_0_s_s_f_f b_select vabs_0_s_s_s_f_f a_select N i) (while_13_1_131_abs0123 vabs_0_f_f b_copy_select vabs_0_s_f_f a_copy_select vabs_0_s_s_f_f b_select vabs_0_s_s_s_f_f a_select N (+ i 1)))))
(assert (forall ((i Int) (N Int) (vabs_0_f_f Int) (vabs_0_s_f_f Int) (vabs_0_s_s_f_f Int) (vabs_0_s_s_s_f_f Int) (a_select Int) (b_select Int) (a_copy_select Int) (b_copy_select Int)) (=> (assign_19_1_137_abs0123 vabs_0_f_f b_copy_select vabs_0_s_f_f a_copy_select vabs_0_s_s_f_f b_select vabs_0_s_s_s_f_f a_select N i) (while_20_1_245_abs0123 vabs_0_f_f b_copy_select vabs_0_s_f_f a_copy_select vabs_0_s_s_f_f b_select vabs_0_s_s_s_f_f a_select N 0))))
(assert (forall ((N Int) (i Int) (vabs_0_f_f Int) (vabs_0_s_f_f Int) (vabs_0_s_s_f_f Int) (vabs_0_s_s_s_f_f Int) (b_copy_select Int) (a_copy_select Int) (b_select Int) (a_select Int)) (=> (and (while_20_1_245_abs0123 vabs_0_f_f b_copy_select vabs_0_s_f_f a_copy_select vabs_0_s_s_f_f b_select vabs_0_s_s_s_f_f a_select N i) (< i N)) (arrayassign_23_5_219_abs0123 vabs_0_f_f b_copy_select vabs_0_s_f_f a_copy_select vabs_0_s_s_f_f b_select vabs_0_s_s_s_f_f a_select N i))))
(assert (forall ((N Int) (i Int) (vabs_0_f_f Int) (vabs_0_s_f_f Int) (vabs_0_s_s_f_f Int) (vabs_0_s_s_s_f_f Int) (b_copy_select Int) (a_copy_select Int) (b_select Int) (a_select Int)) (=> (and (while_20_1_245_abs0123 vabs_0_f_f b_copy_select vabs_0_s_f_f a_copy_select vabs_0_s_s_f_f b_select vabs_0_s_s_s_f_f a_select N i) (not (< i N))) (assign_28_1_251_abs0123 vabs_0_f_f b_copy_select vabs_0_s_f_f a_copy_select vabs_0_s_s_f_f b_select vabs_0_s_s_s_f_f a_select N i))))
(assert (forall ((i Int) (N Int) (vabs_0_f_f Int) (vabs_0_s_f_f Int) (vabs_0_s_s_f_f Int) (vabs_0_s_s_s_f_f Int) (a_select Int) (b_select_0 Int) (b_select Int) (a_copy_select Int) (b_copy_select Int)) (=> (and (=> (= i vabs_0_s_s_f_f) (= b_select b_select_0)) (arrayassign_23_5_219_abs0123 vabs_0_f_f b_copy_select vabs_0_s_f_f a_copy_select vabs_0_s_s_f_f b_select vabs_0_s_s_s_f_f a_select N i) (arrayassign_23_5_219_abs0123 vabs_0_f_f b_copy_select vabs_0_s_f_f a_copy_select i b_select_0 vabs_0_s_s_s_f_f a_select N i)) (arrayassign_24_5_233_abs0123 vabs_0_f_f b_copy_select vabs_0_s_f_f (ite (= i vabs_0_s_f_f) b_select_0 a_copy_select) vabs_0_s_s_f_f b_select vabs_0_s_s_s_f_f a_select N i))))
(assert (forall ((i Int) (N Int) (vabs_0_f_f Int) (vabs_0_s_f_f Int) (vabs_0_s_s_f_f Int) (vabs_0_s_s_s_f_f Int) (a_select_0 Int) (a_select Int) (b_select Int) (a_copy_select Int) (b_copy_select Int)) (=> (and (=> (= i vabs_0_s_s_s_f_f) (= a_select a_select_0)) (arrayassign_24_5_233_abs0123 vabs_0_f_f b_copy_select vabs_0_s_f_f a_copy_select vabs_0_s_s_f_f b_select vabs_0_s_s_s_f_f a_select N i) (arrayassign_24_5_233_abs0123 vabs_0_f_f b_copy_select vabs_0_s_f_f a_copy_select vabs_0_s_s_f_f b_select i a_select_0 N i)) (assign_25_5_242_abs0123 vabs_0_f_f (ite (= i vabs_0_f_f) a_select_0 b_copy_select) vabs_0_s_f_f a_copy_select vabs_0_s_s_f_f b_select vabs_0_s_s_s_f_f a_select N i))))
(assert (forall ((i Int) (N Int) (vabs_0_f_f Int) (vabs_0_s_f_f Int) (vabs_0_s_s_f_f Int) (vabs_0_s_s_s_f_f Int) (a_select Int) (b_select Int) (a_copy_select Int) (b_copy_select Int)) (=> (assign_25_5_242_abs0123 vabs_0_f_f b_copy_select vabs_0_s_f_f a_copy_select vabs_0_s_s_f_f b_select vabs_0_s_s_s_f_f a_select N i) (while_20_1_245_abs0123 vabs_0_f_f b_copy_select vabs_0_s_f_f a_copy_select vabs_0_s_s_f_f b_select vabs_0_s_s_s_f_f a_select N (+ i 1)))))
(assert (forall ((i Int) (N Int) (vabs_0_f_f Int) (vabs_0_s_f_f Int) (vabs_0_s_s_f_f Int) (vabs_0_s_s_s_f_f Int) (a_select Int) (b_select Int) (a_copy_select Int) (b_copy_select Int)) (=> (assign_28_1_251_abs0123 vabs_0_f_f b_copy_select vabs_0_s_f_f a_copy_select vabs_0_s_s_f_f b_select vabs_0_s_s_s_f_f a_select N i) (while_29_8_367_abs0123 vabs_0_f_f b_copy_select vabs_0_s_f_f a_copy_select vabs_0_s_s_f_f b_select vabs_0_s_s_s_f_f a_select N 0))))
(assert (forall ((N Int) (i Int) (vabs_0_f_f Int) (vabs_0_s_f_f Int) (vabs_0_s_s_f_f Int) (vabs_0_s_s_s_f_f Int) (b_copy_select Int) (a_copy_select Int) (b_select Int) (a_select Int)) (=> (and (while_29_8_367_abs0123 vabs_0_f_f b_copy_select vabs_0_s_f_f a_copy_select vabs_0_s_s_f_f b_select vabs_0_s_s_s_f_f a_select N i) (< i N)) (assert_32_3_337_abs0123 vabs_0_f_f b_copy_select vabs_0_s_f_f a_copy_select vabs_0_s_s_f_f b_select vabs_0_s_s_s_f_f a_select N i))))
(assert (forall ((N Int) (i Int) (vabs_0_f_f Int) (vabs_0_s_f_f Int) (vabs_0_s_s_f_f Int) (vabs_0_s_s_s_f_f Int) (b_copy_select Int) (a_copy_select Int) (b_select Int) (a_select Int)) (=> (and (while_29_8_367_abs0123 vabs_0_f_f b_copy_select vabs_0_s_f_f a_copy_select vabs_0_s_s_f_f b_select vabs_0_s_s_s_f_f a_select N i) (not (< i N))) (end_abs0123 vabs_0_f_f b_copy_select vabs_0_s_f_f a_copy_select vabs_0_s_s_f_f b_select vabs_0_s_s_s_f_f a_select N i))))
(assert (forall ((i Int) (N Int) (a_select Int) (b_select Int) (a_copy_select Int) (b_copy_select Int)) (=> (assert_32_3_337_abs0123 i b_copy_select 0 a_copy_select 0 b_select i a_select N i) (= a_select b_copy_select))))
(assert (forall ((i Int) (N Int) (vabs_0_f_f Int) (vabs_0_s_f_f Int) (vabs_0_s_s_f_f Int) (vabs_0_s_s_s_f_f Int) (a_select Int) (b_select Int) (a_copy_select Int) (b_copy_select Int)) (=> (assert_32_3_337_abs0123 vabs_0_f_f b_copy_select vabs_0_s_f_f a_copy_select vabs_0_s_s_f_f b_select vabs_0_s_s_s_f_f a_select N i) (assert_33_10_355_abs0123 vabs_0_f_f b_copy_select vabs_0_s_f_f a_copy_select vabs_0_s_s_f_f b_select vabs_0_s_s_s_f_f a_select N i))))
(assert (forall ((i Int) (N Int) (a_select Int) (b_select Int) (a_copy_select Int) (b_copy_select Int)) (=> (assert_33_10_355_abs0123 0 b_copy_select i a_copy_select i b_select 0 a_select N i) (= b_select a_copy_select))))
(assert (forall ((i Int) (N Int) (vabs_0_f_f Int) (vabs_0_s_f_f Int) (vabs_0_s_s_f_f Int) (vabs_0_s_s_s_f_f Int) (a_select Int) (b_select Int) (a_copy_select Int) (b_copy_select Int)) (=> (assert_33_10_355_abs0123 vabs_0_f_f b_copy_select vabs_0_s_f_f a_copy_select vabs_0_s_s_f_f b_select vabs_0_s_s_s_f_f a_select N i) (assign_34_10_364_abs0123 vabs_0_f_f b_copy_select vabs_0_s_f_f a_copy_select vabs_0_s_s_f_f b_select vabs_0_s_s_s_f_f a_select N i))))
(assert (forall ((i Int) (N Int) (vabs_0_f_f Int) (vabs_0_s_f_f Int) (vabs_0_s_s_f_f Int) (vabs_0_s_s_s_f_f Int) (a_select Int) (b_select Int) (a_copy_select Int) (b_copy_select Int)) (=> (assign_34_10_364_abs0123 vabs_0_f_f b_copy_select vabs_0_s_f_f a_copy_select vabs_0_s_s_f_f b_select vabs_0_s_s_s_f_f a_select N i) (while_29_8_367_abs0123 vabs_0_f_f b_copy_select vabs_0_s_f_f a_copy_select vabs_0_s_s_f_f b_select vabs_0_s_s_s_f_f a_select N (+ i 1)))))
(check-sat)